NAME : eil76.opt.tour
COMMENT : 561.376853623242  #   Population: 60   Iteration: 5000   Elitism Ratio: 0.1   Mutation Ratio: 0.09   Crossover Ratio: 1
TYPE : TOUR
DIMENSION : 76
TOUR_SECTION
23
49
24
18
50
25
55
31
39
9
32
44
3
17
40
12
72
58
10
38
65
66
11
59
14
53
7
35
8
19
54
13
57
15
29
48
5
37
20
70
60
71
69
36
47
21
61
28
74
2
30
4
45
27
52
46
34
67
26
76
75
68
6
51
16
63
33
73
62
22
64
42
41
43
1
56
-1
EOF
